32 40 
20 

82 40 
26 27 79 13 
84 53 87 
49 

19 
20 26 
18 63 55 78 
15 
46 
77 4 
78 
70 11 
71 36 

10 
75 8 78 84 
1 9 31 
47 80 65 

46 73 87 
61 62 
67 83 59 42 
4 9 30 
4 

76 40 
37 26 
58 35 71 20 
0 70 
83 69 

53 31 46 72 
66 77 16 86 
30 


84 72 41 0 29 3 47 
67 40 
76 83 45 25 43 
42 
48 
58 59 42 
35 23 12 85 
49 21 40 
49 44 
47 48 6 



35 5 69 85 

86 10 
69 

31 84 45 
86 25 82 45 

74 86 24 
70 74 24 
10 
67 71 86 
68 21 
36 
64 68 25 41 
67 79 65 
56 53 33 
15 32 62 
64 16 31 74 
40 35 
80 23 
61 71 62 
19 
29 42 
13 79 36 
14 19 10 
68 77 4 
73 21 

3 59 
33 25 42 
40 58 5 19 
53 46 
59 61 64 55 36 
5 23 


